# Objective value = 98
WA1n 0
WA1p 0
WA2n 1
WA2p 0
WB1n 0
WB1p 0
WB2n 1
WB2p 0
WC1n 0
WC1p 1
WC2n 0
WC2p 1
WD1n 0
WD1p 1
WD2n 0
WD2p 1
WE1n 2
WE1p 0
WE2n 1
WE2p 0
WF1n 4
WF1p 0
WG1n 7
WG1p 0
WH1n 0
WH1p 7
WI1n 18
WI1p 0
WJ1n 18
WJ1p 0
WK1n 0
WK1p 18
WT1n 0
WT1p 10
WT2n 0
WT2p 1
5 7
a 0
b 0
c 0
d 0
e 1
f 1
g 1
h 1
i 0
j 0
k 0
l 0
m 1
n 0
o 0
p 1
q 1
r 1
